Read MPS format model from file dat/rmp/4node-base_8192_20.mps
Reading time = 0.55 seconds
: 8252 rows, 41104 columns, 1492368 nonzeros
Gurobi Optimizer version 9.0.0 build v9.0.0rc2 (linux64)
Optimize a model with 8252 rows, 41104 columns and 1492368 nonzeros
Model fingerprint: 0x4dd42c6e
Coefficient statistics:
  Matrix range     [7e-04, 2e+01]
  Objective range  [9e-03, 1e+04]
  Bounds range     [0e+00, 0e+00]
  RHS range        [1e+00, 8e+01]
Ordering time: 0.01s

Barrier statistics:
 AA' NZ     : 4.177e+05
 Factor NZ  : 5.181e+05 (roughly 24 MBytes of memory)
 Factor Ops : 3.337e+07 (less than 1 second per iteration)
 Threads    : 1

                  Objective                Residual
Iter       Primal          Dual         Primal    Dual     Compl     Time
   0   2.13680326e+07  0.00000000e+00  5.04e+02 2.40e+02  4.61e+04     0s
   1   2.56472918e+05 -4.43694430e+07  5.20e+00 9.48e+02  1.72e+03     0s
   2   5.11781398e+03 -7.99116090e+06  7.22e-04 1.10e+01  1.97e+02     1s
   3   8.26411708e+02 -1.88970939e+06  3.91e-06 2.15e+00  4.65e+01     1s
   4  -1.26674119e+02 -2.39149765e+05  3.80e-08 2.50e-01  5.87e+00     1s
   5  -2.93180878e+02 -5.89968452e+03  4.24e-09 5.19e-03  1.38e-01     1s
   6  -3.28309345e+02 -7.15974901e+02  2.86e-09 2.63e-04  9.49e-03     1s
   7  -3.57402326e+02 -5.69122385e+02  1.15e-08 1.03e-04  5.18e-03     1s
   8  -3.75478717e+02 -4.62482152e+02  2.65e-08 1.89e-05  2.12e-03     1s
   9  -3.92290990e+02 -4.47002462e+02  3.24e-08 6.60e-06  1.33e-03     1s
  10  -4.08239568e+02 -4.33111787e+02  1.29e-07 2.28e-06  6.06e-04     1s
  11  -4.15376587e+02 -4.26565482e+02  1.95e-07 7.05e-07  2.73e-04     1s
  12  -4.20254711e+02 -4.23706317e+02  6.95e-07 2.09e-07  8.41e-05     1s
  13  -4.21090613e+02 -4.22872354e+02  1.19e-06 9.44e-08  4.34e-05     2s
  14  -4.21387075e+02 -4.22488482e+02  2.19e-06 4.92e-08  2.68e-05     2s
  15  -4.21875299e+02 -4.22228647e+02  1.81e-06 1.34e-08  8.61e-06     2s
  16  -4.21965814e+02 -4.22160738e+02  9.37e-07 7.31e-09  4.75e-06     2s
  17  -4.22034965e+02 -4.22106306e+02  3.98e-07 2.13e-09  1.74e-06     2s
  18  -4.22049728e+02 -4.22093679e+02  2.56e-07 9.75e-10  1.07e-06     3s
  19  -4.22060011e+02 -4.22085911e+02  1.74e-07 3.58e-10  6.31e-07     3s
  20  -4.22060026e+02 -4.22085870e+02  6.36e-07 3.55e-10  6.30e-07     3s
  21  -4.22060090e+02 -4.22085535e+02  2.38e-06 8.12e-11  6.20e-07     3s
  22  -4.22060210e+02 -4.22083498e+02  3.29e-06 5.70e-11  5.68e-07     3s
  23  -4.22060206e+02 -4.22082603e+02  1.98e-06 4.49e-11  5.45e-07     3s
  24  -4.22060223e+02 -4.22082371e+02  2.82e-06 4.15e-11  5.39e-07     3s
  25  -4.22060333e+02 -4.22081612e+02  5.20e-06 3.21e-11  5.19e-07     3s
  26  -4.22060295e+02 -4.22081610e+02  3.45e-06 3.15e-11  5.19e-07     4s
  27  -4.22060319e+02 -4.22081613e+02  4.86e-06 3.15e-11  5.19e-07     4s
  28  -4.22060344e+02 -4.22081615e+02  6.50e-06 3.15e-11  5.19e-07     4s
  29  -4.22060252e+02 -4.22081514e+02  4.85e-06 3.10e-11  5.16e-07     4s
  30  -4.22060190e+02 -4.22080754e+02  1.05e-05 1.67e-11  4.97e-07     4s
  31  -4.22060284e+02 -4.22080528e+02  8.52e-06 1.46e-11  4.90e-07     4s
  32  -4.22060338e+02 -4.22080513e+02  5.62e-06 1.46e-11  4.89e-07     4s
  33  -4.22060406e+02 -4.22080496e+02  3.86e-06 1.46e-11  4.88e-07     4s
  34  -4.22060467e+02 -4.22080484e+02  5.68e-06 1.46e-11  4.88e-07     5s
  35  -4.22060547e+02 -4.22080462e+02  1.32e-05 1.46e-11  4.87e-07     5s
  36  -4.22060835e+02 -4.22080470e+02  2.72e-05 1.23e-11  4.85e-07     5s
  37  -4.22060195e+02 -4.22080355e+02  2.52e-05 1.46e-11  4.82e-07     5s
  38  -4.22060848e+02 -4.22080352e+02  3.98e-05 1.46e-11  4.81e-07     5s
  39  -4.22060902e+02 -4.22080156e+02  3.94e-05 1.00e-11  4.73e-07     5s
  40  -4.22060936e+02 -4.22080132e+02  3.16e-05 1.46e-11  4.65e-07     5s
  41  -4.22060926e+02 -4.22079955e+02  3.15e-05 1.46e-11  4.58e-07     5s
  42  -4.22061097e+02 -4.22079778e+02  4.11e-05 1.46e-11  4.43e-07     6s
  43  -4.22061651e+02 -4.22079773e+02  3.61e-05 1.46e-11  4.39e-07     6s
  44  -4.22061650e+02 -4.22079773e+02  4.89e-05 1.46e-11  4.39e-07     6s
  45  -4.22061359e+02 -4.22079746e+02  5.47e-05 1.46e-11  4.35e-07     6s
  46  -4.22062466e+02 -4.22079727e+02  2.67e-05 7.28e-12  4.25e-07     6s
  47  -4.22062820e+02 -4.22079725e+02  3.88e-05 7.28e-12  4.23e-07     6s
  48  -4.22062900e+02 -4.22079666e+02  3.67e-05 1.46e-11  4.11e-07     6s
  49  -4.22063211e+02 -4.22079627e+02  5.34e-05 1.46e-11  4.07e-07     6s
  50  -4.22064087e+02 -4.22079638e+02  8.75e-05 1.46e-11  3.94e-07     7s
  51  -4.22064235e+02 -4.22079636e+02  9.15e-05 1.46e-11  3.94e-07     7s
  52  -4.22065204e+02 -4.22079637e+02  1.41e-04 1.46e-11  3.94e-07     7s
  53  -4.22066170e+02 -4.22079640e+02  2.32e-04 1.46e-11  3.94e-07     7s
  54  -4.22065505e+02 -4.22079632e+02  1.67e-04 1.46e-11  3.91e-07     7s
  55  -4.22067474e+02 -4.22079583e+02  3.14e-04 1.46e-11  3.84e-07     7s
  56  -4.22072026e+02 -4.22079578e+02  5.01e-04 1.46e-11  3.08e-07     7s
  57  -4.22076295e+02 -4.22079576e+02  6.30e-04 1.46e-11  2.84e-07     7s
  58  -4.22088400e+02 -4.22079530e+02  7.40e-04 1.46e-11  1.22e-07     8s
  59  -4.22094852e+02 -4.22079532e+02  1.30e-03 1.46e-11  1.10e-07     8s
  60  -4.22095126e+02 -4.22079526e+02  1.42e-03 1.46e-11  9.40e-08     8s
  61  -4.22095144e+02 -4.22079526e+02  1.15e-03 1.46e-11  8.54e-08     8s
  62  -4.22092442e+02 -4.22079509e+02  1.07e-03 1.46e-11  8.08e-08     8s
  63  -4.22093358e+02 -4.22079519e+02  1.07e-03 1.46e-11  7.84e-08     8s
  64  -4.22092420e+02 -4.22079512e+02  1.02e-03 2.91e-11  7.66e-08     8s
  65  -4.22093146e+02 -4.22079498e+02  9.35e-04 2.91e-11  5.86e-08     8s
  66  -4.22090226e+02 -4.22079487e+02  7.49e-04 2.91e-11  5.26e-08     9s
  67  -4.22090485e+02 -4.22079482e+02  7.59e-04 1.46e-11  4.84e-08     9s
  68  -4.22093571e+02 -4.22079487e+02  1.01e-03 1.46e-11  2.53e-08     9s
  69  -4.22096800e+02 -4.22079481e+02  1.03e-03 1.46e-11  2.20e-08     9s
  70  -4.22095848e+02 -4.22079480e+02  1.01e-03 1.46e-11  2.18e-08     9s
  71  -4.22095154e+02 -4.22079462e+02  9.88e-04 1.46e-11  2.15e-08     9s
  72  -4.22095995e+02 -4.22079465e+02  1.04e-03 4.09e-14  1.98e-08     9s
  73  -4.22095391e+02 -4.22079468e+02  1.00e-03 1.46e-11  1.78e-08     9s
  74  -4.22095353e+02 -4.22079466e+02  1.00e-03 1.46e-11  1.77e-08     9s
  75  -4.22094880e+02 -4.22079466e+02  9.73e-04 1.46e-11  1.59e-08    10s
  76  -4.22094586e+02 -4.22079466e+02  9.66e-04 1.46e-11  1.57e-08    10s
  77  -4.22095346e+02 -4.22079467e+02  9.99e-04 1.46e-11  1.55e-08    10s
  78  -4.22095087e+02 -4.22079496e+02  8.95e-04 1.46e-11  1.54e-08    10s
  79  -4.22090898e+02 -4.22079489e+02  7.93e-04 1.46e-11  1.44e-08    10s
  80  -4.22089987e+02 -4.22079512e+02  7.58e-04 1.46e-11  1.39e-08    10s
  81  -4.22091633e+02 -4.22079513e+02  7.96e-04 1.46e-11  1.37e-08    10s
  82  -4.22091432e+02 -4.22079513e+02  7.93e-04 1.46e-11  1.36e-08    10s
  83  -4.22091667e+02 -4.22079505e+02  7.86e-04 1.46e-11  1.26e-08    10s
  84  -4.22092661e+02 -4.22079495e+02  8.73e-04 1.46e-11  1.22e-08    11s
  85  -4.22094648e+02 -4.22079519e+02  1.27e-03 1.46e-11  9.95e-09    11s
  86  -4.22092554e+02 -4.22079473e+02  1.15e-03 1.46e-11  8.18e-09    11s
  87  -4.22089511e+02 -4.22079494e+02  9.14e-04 1.46e-11  7.39e-09    11s
  88  -4.22089996e+02 -4.22079494e+02  8.98e-04 1.46e-11  7.07e-09    11s
  89  -4.22090110e+02 -4.22079483e+02  8.99e-04 1.46e-11  7.05e-09    11s
  90  -4.22088979e+02 -4.22079479e+02  7.87e-04 1.46e-11  7.05e-09    11s
  91  -4.22089618e+02 -4.22079481e+02  8.78e-04 1.46e-11  5.51e-09    11s
  92  -4.22089670e+02 -4.22079482e+02  8.83e-04 1.46e-11  5.49e-09    11s
  93  -4.22089610e+02 -4.22079482e+02  8.79e-04 1.46e-11  5.47e-09    12s
  94  -4.22089606e+02 -4.22079482e+02  8.74e-04 1.46e-11  5.33e-09    12s
  95  -4.22089496e+02 -4.22079461e+02  8.53e-04 1.46e-11  5.29e-09    12s
  96  -4.22088170e+02 -4.22079454e+02  8.40e-04 1.46e-11  5.14e-09    12s
  97  -4.22088906e+02 -4.22079455e+02  8.72e-04 1.46e-11  3.88e-09    12s
  98  -4.22085663e+02 -4.22079489e+02  9.34e-04 1.46e-11  2.71e-09    12s
  99  -4.22082259e+02 -4.22079504e+02  6.74e-04 1.46e-11  2.06e-09    12s
 100  -4.22081732e+02 -4.22079509e+02  5.93e-04 1.46e-11  1.81e-09    12s
 101  -4.22081744e+02 -4.22079509e+02  5.93e-04 1.46e-11  1.81e-09    12s
 102  -4.22081800e+02 -4.22079510e+02  6.13e-04 1.46e-11  1.78e-09    13s
 103  -4.22081802e+02 -4.22079513e+02  6.13e-04 1.46e-11  1.78e-09    13s
 104  -4.22081604e+02 -4.22079513e+02  7.17e-04 1.46e-11  1.86e-09    13s
 105  -4.22080821e+02 -4.22079535e+02  5.73e-04 1.46e-11  1.76e-09    13s
 106  -4.22080765e+02 -4.22079532e+02  1.00e-03 1.46e-11  1.73e-09    13s
 107  -4.22084041e+02 -4.22079541e+02  7.54e-04 1.46e-11  1.22e-09    13s
 108  -4.22083863e+02 -4.22079540e+02  7.51e-04 1.46e-11  1.20e-09    13s
 109  -4.22087057e+02 -4.22079541e+02  6.48e-04 1.46e-11  1.11e-09    13s
 110  -4.22086186e+02 -4.22079536e+02  6.17e-04 1.46e-11  9.32e-10    13s
 111  -4.22085936e+02 -4.22079610e+02  6.24e-04 1.46e-11  1.45e-09    14s
 112  -4.22086903e+02 -4.22079610e+02  5.43e-04 1.46e-11  1.44e-09    14s
 113  -4.22086710e+02 -4.22079609e+02  5.63e-04 1.46e-11  1.30e-09    14s
 114  -4.22086758e+02 -4.22079612e+02  5.01e-04 1.46e-11  1.22e-09    14s
 115  -4.22086632e+02 -4.22079609e+02  5.03e-04 1.46e-11  1.18e-09    14s
 116  -4.22086740e+02 -4.22079649e+02  5.12e-04 1.46e-11  1.16e-09    14s
 117  -4.22085020e+02 -4.22079641e+02  4.66e-04 1.46e-11  1.03e-09    14s
 118  -4.22085996e+02 -4.22079582e+02  7.90e-04 1.46e-11  5.15e-10    14s
 119  -4.22085585e+02 -4.22079593e+02  7.71e-04 1.46e-11  5.73e-10    15s
 120  -4.22085601e+02 -4.22079665e+02  8.99e-04 1.46e-11  5.73e-10    15s
 121  -4.22086650e+02 -4.22079656e+02  8.40e-04 1.46e-11  5.14e-10    15s
 122  -4.22086945e+02 -4.22079660e+02  6.40e-04 1.46e-11  4.30e-10    15s
 123  -4.22086341e+02 -4.22079666e+02  6.32e-04 1.46e-11  3.61e-10    15s
 124  -4.22085955e+02 -4.22079665e+02  6.63e-04 1.46e-11  3.65e-10    15s
 125  -4.22085197e+02 -4.22079660e+02  6.93e-04 1.46e-11  2.80e-10    15s
 126  -4.22085387e+02 -4.22079664e+02  7.01e-04 1.46e-11  2.78e-10    15s
 127  -4.22085197e+02 -4.22079647e+02  6.68e-04 1.46e-11  2.65e-10    15s
 128  -4.22085002e+02 -4.22079647e+02  6.77e-04 1.46e-11  2.98e-10    16s
 129  -4.22085365e+02 -4.22079650e+02  6.43e-04 1.46e-11  2.90e-10    16s
 130  -4.22085095e+02 -4.22079648e+02  6.37e-04 3.44e-14  2.92e-10    16s
 131  -4.22084916e+02 -4.22079645e+02  6.31e-04 1.46e-11  2.94e-10    16s
 132  -4.22085477e+02 -4.22079649e+02  6.73e-04 1.46e-11  3.31e-10    16s
 133  -4.22082249e+02 -4.22079652e+02  6.80e-04 1.46e-11  4.98e-10    16s

Barrier performed 133 iterations in 16.26 seconds
Sub-optimal termination - objective -4.22060011e+02

Solve time: 16.26693598
Barrier iterations: 133
